1 1 2 0
1 1 3 0
1 1 -4 0
1 2 1 0
1 2 5 0
1 -6 7 0
1 -6 8 0
1 -6 -9 0
1 6 -3 0
1 6 -10 0
1 -6 -11 0
1 -6 -12 0
1 -9 7 0
1 -9 8 0
1 9 -3 0
1 9 10 0
1 9 -11 0
1 -9 4 0
1 9 5 0
1 10 13 0
1 10 -14 0
1 -10 15 0
1 10 9 0
1 -10 16 0
1 10 -17 0
1 -10 18 0
1 -5 13 0
1 5 14 0
1 -5 2 0
1 5 -10 0
1 -5 17 0
1 5 18 0
1 5 -6 0
1 3 13 0
1 3 -19 0
1 3 9 0
1 3 -2 0
1 3 20 0
1 -3 -21 0
1 -3 -1 0
1 3 4 0
1 -4 22 0
1 4 -9 0
1 4 2 0
1 -4 -3 0
1 4 -23 0
1 -4 21 0
1 4 6 0
1 4 1 0
1 -4 24 0
1 18 8 0
1 -18 -15 0
1 18 -12 0
1 18 21 0
1 -18 -5 0
1 -15 8 0
1 15 -19 0
1 15 12 0
1 -15 -18 0
1 -17 -25 0
1 17 -26 0
1 17 -10 0
1 -17 11 0
1 -17 12 0
1 17 -27 0
1 17 23 0
1 14 7 0
1 14 8 0
1 -14 -25 0
1 -14 22 0
1 14 -11 0
1 14 12 0
1 -14 -27 0
1 -14 5 0
1 -12 -28 0
1 12 -14 0
1 -12 29 0
1 12 -17 0
1 -12 -18 0
1 -12 6 0
1 12 30 0
1 -8 -28 0
1 -8 -15 0
1 8 -9 0
1 8 -29 0
1 8 -31 0
1 -8 12 0
1 8 -17 0
1 -8 -18 0
1 -11 -7 0
1 -11 15 0
1 11 9 0
1 11 32 0
1 11 16 0
1 11 -17 0
1 11 18 0
1 11 6 0
1 -11 -30 0
1 7 -13 0
1 -7 15 0
1 -7 33 0
1 7 32 0
1 7 -17 0
1 -7 18 0
1 -7 6 0
1 7 30 0
1 -31 -25 0
1 -31 26 0
1 -31 -12 0
1 -31 -27 0
1 34 25 0
1 -34 -31 0
1 34 -12 0
1 -34 -35 0
1 29 28 0
1 29 25 0
1 -29 -32 0
1 29 12 0
1 -29 35 0
1 28 36 0
1 -28 -26 0
1 28 -12 0
1 -28 35 0
1 -35 -28 0
1 -35 34 0
1 -35 -14 0
1 35 26 0
1 35 -31 0
1 -26 34 0
1 -26 14 0
1 -26 -29 0
1 -26 31 0
1 -26 17 0
1 -26 -35 0
1 27 -34 0
1 -27 -14 0
1 -27 -37 0
1 -27 33 0
1 27 29 0
1 -27 -31 0
1 27 -17 0
1 -25 28 0
1 -25 34 0
1 -25 -14 0
1 25 -33 0
1 25 -29 0
1 -25 -31 0
1 -25 27 0
1 -25 38 0
1 25 -30 0
1 -21 -39 0
1 21 19 0
1 -21 40 0
1 -21 41 0
1 21 -42 0
1 -21 -18 0
1 21 4 0
1 19 39 0
1 19 40 0
1 -19 -3 0
1 19 -42 0
1 19 -21 0
1 -19 -4 0
1 23 22 0
1 -23 39 0
1 -23 -40 0
1 -23 43 0
1 23 3 0
1 23 -41 0
1 23 44 0
1 23 -45 0
1 22 -14 0
1 22 -40 0
1 -22 -46 0
1 22 43 0
1 -22 -3 0
1 22 -41 0
1 -22 23 0
1 22 45 0
1 22 4 0
1 -40 -22 0
1 -40 -19 0
1 40 32 0
1 -40 -16 0
1 40 23 0
1 -40 21 0
1 42 -36 0
1 -42 -22 0
1 -42 -19 0
1 42 16 0
1 -42 21 0
1 -39 -22 0
1 39 -19 0
1 -39 -41 0
1 39 -23 0
1 -39 -21 0
1 41 39 0
1 -41 19 0
1 41 23 0
1 41 21 0
1 -16 -7 0
1 -16 -46 0
1 -16 -43 0
1 -16 11 0
1 16 44 0
1 -16 4 0
1 16 -5 0
1 13 -7 0
1 13 -34 0
1 -13 40 0
1 -13 16 0
1 13 42 0
1 13 -45 0
1 -13 4 0
1 -13 -5 0
1 -32 47 0
1 32 -7 0
1 -32 -20 0
1 -32 11 0
1 32 42 0
1 -32 -44 0
1 32 45 0
1 -32 -24 0
1 36 -47 0
1 -36 -7 0
1 36 40 0
1 36 43 0
1 -36 20 0
1 -36 -11 0
1 -36 -32 0
1 -36 42 0
1 36 44 0
1 36 45 0
1 -36 -24 0
1 -43 -36 0
1 -43 -22 0
1 -43 -37 0
1 -43 -32 0
1 43 16 0
1 -43 23 0
1 -43 45 0
1 -45 36 0
1 -45 -13 0
1 -45 -43 0
1 -45 32 0
1 45 16 0
1 -45 38 0
1 -45 -30 0
1 46 36 0
1 -46 13 0
1 46 -32 0
1 46 -44 0
1 -44 36 0
1 44 -13 0
1 -44 -32 0
1 44 16 0
1 -44 -23 0
1 -33 47 0
1 33 -7 0
1 33 8 0
1 33 -43 0
1 33 20 0
1 -33 -11 0
1 -33 48 0
1 -33 -12 0
1 33 -27 0
1 -33 -24 0
1 30 47 0
1 30 -8 0
1 30 -43 0
1 -30 20 0
1 30 33 0
1 30 -11 0
1 30 12 0
1 -30 -27 0
1 30 45 0
1 -30 -24 0
1 37 -25 0
1 37 -20 0
1 37 48 0
1 -37 -27 0
1 -37 -45 0
1 37 38 0
1 37 24 0
1 38 -47 0
1 -38 37 0
1 -38 48 0
1 -38 27 0
1 38 24 0
1 38 -45 0
1 -48 47 0
1 48 36 0
1 -48 37 0
1 48 33 0
1 -48 10 0
1 48 -32 0
1 48 -30 0
1 47 -37 0
1 -47 33 0
1 -47 48 0
1 -47 32 0
1 47 5 0
1 47 38 0
1 -20 -36 0
1 20 -37 0
1 20 -33 0
1 -20 32 0
1 20 24 0
1 -24 -36 0
1 -24 -37 0
1 -24 20 0
1 24 -33 0
1 -24 32 0
1 24 -4 0
1 -24 -30 0
